num_offers = 25;
num_halls = 10;
start=[92,38,3,57,20,12,22,40,34,56,2,4,18,5,63,37,14,21,2,51,15,67,12,30,59];
end=[100,66,89,70,72,27,27,93,61,64,21,95,25,78,83,73,93,93,68,85,97,92,63,96,97];
price=[272,2452,6454,387,4088,1598,335,4462,2169,348,1397,5437,326,7262,877,3537,7246,3159,5236,2440,4947,2599,2017,5450,2672];
requirement=[409,390,357,460,758,600,730,717,680,304,886,200,805,330,681,279,973,282,616,378,471,742,698,345,217];
capacity=[278,851,762,289,939,533,360,870,763,413];
